(set-logic ALL)
(declare-var conf_0 (_ BitVec 32))
(declare-var conf_0! (_ BitVec 32))
(declare-var conf_1 (_ BitVec 32))
(declare-var conf_1! (_ BitVec 32))
(declare-var conf_2 (_ BitVec 32))
(declare-var conf_2! (_ BitVec 32))
(declare-var conf_3 (_ BitVec 32))
(declare-var conf_3! (_ BitVec 32))
(declare-var conf_4 (_ BitVec 32))
(declare-var conf_4! (_ BitVec 32))
(declare-var x (_ BitVec 32))
(declare-var x! (_ BitVec 32))
(declare-var y (_ BitVec 32))
(declare-var y! (_ BitVec 32))
(declare-var tmp (_ BitVec 32))
(declare-var tmp! (_ BitVec 32))
(declare-var conf_0_0 (_ BitVec 32))
(declare-var conf_0_0! (_ BitVec 32))
(declare-var conf_1_0 (_ BitVec 32))
(declare-var conf_1_0! (_ BitVec 32))
(declare-var conf_1_1 (_ BitVec 32))
(declare-var conf_1_1! (_ BitVec 32))
(declare-var conf_1_2 (_ BitVec 32))
(declare-var conf_1_2! (_ BitVec 32))
(declare-var conf_2_0 (_ BitVec 32))
(declare-var conf_2_0! (_ BitVec 32))
(declare-var conf_2_1 (_ BitVec 32))
(declare-var conf_2_1! (_ BitVec 32))
(declare-var conf_2_2 (_ BitVec 32))
(declare-var conf_2_2! (_ BitVec 32))
(declare-var conf_3_0 (_ BitVec 32))
(declare-var conf_3_0! (_ BitVec 32))
(declare-var conf_4_0 (_ BitVec 32))
(declare-var conf_4_0! (_ BitVec 32))
(declare-var x_0 (_ BitVec 32))
(declare-var x_0! (_ BitVec 32))
(declare-var x_1 (_ BitVec 32))
(declare-var x_1! (_ BitVec 32))
(declare-var x_2 (_ BitVec 32))
(declare-var x_2! (_ BitVec 32))
(declare-var y_0 (_ BitVec 32))
(declare-var y_0! (_ BitVec 32))
(declare-var y_1 (_ BitVec 32))
(declare-var y_1! (_ BitVec 32))
(declare-var y_2 (_ BitVec 32))
(declare-var y_2! (_ BitVec 32))
(synth-fun inv-f((parameter0 (_ BitVec 32))(parameter1 (_ BitVec 32))(parameter2 (_ BitVec 32))(parameter3 (_ BitVec 32))(parameter4 (_ BitVec 32))(parameter5 (_ BitVec 32))(parameter6 (_ BitVec 32))(parameter7 (_ BitVec 32))(parameter8 (_ BitVec 32))(parameter9 (_ BitVec 32))(parameter10 (_ BitVec 32))(parameter11 (_ BitVec 32))(parameter12 (_ BitVec 32))(parameter13 (_ BitVec 32))(parameter14 (_ BitVec 32))(parameter15 (_ BitVec 32))(parameter16 (_ BitVec 32))(parameter17 (_ BitVec 32))(parameter18 (_ BitVec 32))(parameter19 (_ BitVec 32))(parameter20 (_ BitVec 32))(parameter21 (_ BitVec 32))(parameter22 (_ BitVec 32)))Bool) 
(constraint (=> (and (and (and (and (and (and (and (and (and (and (and (and (and (and (and (= conf_0 conf_0_0) (= conf_1 conf_1_0) ) (= conf_2 conf_2_0) ) (= conf_3 conf_3_0) ) (= conf_4 conf_4_0) ) (= x x_0) ) (= y y_0) ) (= conf_0_0 (_ bv6 32)) ) (= conf_1_0 (_ bv3 32)) ) (= conf_2_0 (_ bv4 32)) ) (= conf_3_0 (_ bv8 32)) ) (= conf_4_0 (_ bv3 32)) ) (bvuge x_0 (_ bv0 32)) ) (bvule x_0 (_ bv2 32)) ) (bvule y_0 (_ bv2 32)) ) (bvuge y_0 (_ bv0 32)) )(inv-f conf_0 conf_1 conf_2 conf_3 conf_4 x y tmp conf_0_0 conf_1_0 conf_1_1 conf_1_2 conf_2_0 conf_2_1 conf_2_2 conf_3_0 conf_4_0 x_0 x_1 x_2 y_0 y_1 y_2 )))
(constraint (=> (and (inv-f conf_0 conf_1 conf_2 conf_3 conf_4 x y tmp conf_0_0 conf_1_0 conf_1_1 conf_1_2 conf_2_0 conf_2_1 conf_2_2 conf_3_0 conf_4_0 x_0 x_1 x_2 y_0 y_1 y_2 ) (or (and (and (and (and (and (and (and (and (and (and (and (and (and (and (and (= conf_1_1 conf_1) (= conf_2_1 conf_2) ) (= x_1 x) ) (= y_1 y) ) (= conf_1_1 conf_1!) ) (= conf_2_1 conf_2!) ) (= x_1 x!) ) (= y_1 y!) ) (= conf_0 conf_0!) ) (= conf_1 conf_1!) ) (= conf_2 conf_2!) ) (= conf_3 conf_3!) ) (= conf_4 conf_4!) ) (= x x!) ) (= y y!) ) (= tmp tmp!) ) (and (and (and (and (and (and (and (and (and (and (and (and (and (and (and (and (and (and (= conf_1_1 conf_1) (= conf_2_1 conf_2) ) (= x_1 x) ) (= y_1 y) ) (= x_2 (bvadd x_1 (_ bv2 32))) ) (= conf_2_2 (bvsub (_ bv520 32) (_ bv69 32))) ) (= y_2 (bvadd y_1 (_ bv2 32))) ) (= conf_1_2 (bvsub conf_0_0 conf_2_2)) ) (= conf_1_2 conf_1!) ) (= conf_2_2 conf_2!) ) (= x_2 x!) ) (= y_2 y!) ) (= conf_0 conf_0_0) ) (= conf_0! conf_0_0) ) (= conf_3 conf_3_0) ) (= conf_3! conf_3_0) ) (= conf_4 conf_4_0) ) (= conf_4! conf_4_0) ) (= tmp tmp!) ) ) )(inv-f conf_0! conf_1! conf_2! conf_3! conf_4! x! y! tmp! conf_0_0! conf_1_0! conf_1_1! conf_1_2! conf_2_0! conf_2_1! conf_2_2! conf_3_0! conf_4_0! x_0! x_1! x_2! y_0! y_1! y_2! )))
(constraint (=> (inv-f conf_0 conf_1 conf_2 conf_3 conf_4 x y tmp conf_0_0 conf_1_0 conf_1_1 conf_1_2 conf_2_0 conf_2_1 conf_2_2 conf_3_0 conf_4_0 x_0 x_1 x_2 y_0 y_1 y_2 )(or (not (and (and (and (and (and (and (= conf_0 conf_0_0) (= conf_1 conf_1_1) ) (= conf_2 conf_2_1) ) (= conf_3 conf_3_0) ) (= conf_4 conf_4_0) ) (= x x_1) ) (= y y_1) )) (not (and (= y_1 (_ bv0 32)) (not (not (= x_1 (_ bv4 32)))) )) )))
(check-synth)

